unsat
(define-fun inv-f ((n Int) (x Int) (n_0 Int) (x_0 Int) (x_1 Int) (x_2 Int) (x_3 Int)) Bool (and (or (not (= n n_0)) (not (= x x_2)) (>= x_2 1) (not (>= n_0 0)) (= x_2 0)) (or (= n x) (>= x 0))))
10.09user 0.02system 0:10.12elapsed 99%CPU (0avgtext+0avgdata 52032maxresident)k
0inputs+8outputs (0major+7729minor)pagefaults 0swaps
